param set_len = 36;
param target_sum = 9186947275;
param values := [1] 2106766 [2] 105448388 [3] 308339913 [4] 82691620 [5] 603801313 [6] 549275536 [7] 137005050 [8] 798273320 [9] 586145622 [10] 540760376 [11] 673562193 [12] 101597523 [13] 136005756 [14] 894952075 [15] 937450224 [16] 224095362 [17] 445696172 [18] 451723624 [19] 550914533 [20] 504404104 [21] 856595913 [22] 307827624 [23] 730161418 [24] 146758918 [25] 388278343 [26] 647906163 [27] 356649363 [28] 743133760 [29] 490775905 [30] 829078922 [31] 29257274 [32] 595615119 [33] 189045089 [34] 76403464 [35] 374747037 [36] 341257686 ;
